p cnf 361 1
361 0
w 1 0.0522619
w 2 1 0.329444
w 2 -1 0.577755
w 3 2 0.958217
w 3 -2 0.684633
w 4 3 0.00281756
w 4 -3 0.322915
w 5 4 0
w 5 -4 1
w 6 5 0.58616
w 6 -5 0.318072
w 7 6 0
w 7 -6 1
w 8 7 0
w 8 -7 1
w 9 8 0.867584
w 9 -8 0.0671928
w 10 9 0.660588
w 10 -9 0.810318
w 11 10 1
w 11 -10 0
w 12 11 1
w 12 -11 0
w 13 12 1
w 13 -12 0
w 14 13 0.00942179
w 14 -13 0.168066
w 15 14 1
w 15 -14 0
w 16 15 0
w 16 -15 1
w 17 16 1
w 17 -16 0
w 18 17 1
w 18 -17 0
w 19 18 1
w 19 -18 0
w 20 1 0
w 20 -1 1
w 21 20 2 0.713996
w 21 20 -2 0.688751
w 21 -20 2 0.193668
w 21 -20 -2 0.666376
w 22 21 3 0.26086
w 22 21 -3 0.415572
w 22 -21 3 0.216923
w 22 -21 -3 0.0711783
w 23 22 4 0.887429
w 23 22 -4 0.559446
w 23 -22 4 0.250574
w 23 -22 -4 0.174117
w 24 23 5 0
w 24 23 -5 0
w 24 -23 5 1
w 24 -23 -5 1
w 25 24 6 0.692418
w 25 24 -6 0.306047
w 25 -24 6 0.192609
w 25 -24 -6 0.821519
w 26 25 7 0.610005
w 26 25 -7 0.91968
w 26 -25 7 0.870404
w 26 -25 -7 0.613561
w 27 26 8 0
w 27 26 -8 0
w 27 -26 8 0
w 27 -26 -8 1
w 28 27 9 0.580998
w 28 27 -9 0.0193013
w 28 -27 9 0.409506
w 28 -27 -9 0.797921
w 29 28 10 1
w 29 28 -10 0
w 29 -28 10 0
w 29 -28 -10 1
w 30 29 11 0.047994
w 30 29 -11 0.21349
w 30 -29 11 0.0430051
w 30 -29 -11 0.614129
w 31 30 12 0.853884
w 31 30 -12 0.306547
w 31 -30 12 0.824752
w 31 -30 -12 0.0464928
w 32 31 13 0
w 32 31 -13 1
w 32 -31 13 1
w 32 -31 -13 1
w 33 32 14 0
w 33 32 -14 1
w 33 -32 14 0
w 33 -32 -14 0
w 34 33 15 0.591549
w 34 33 -15 0.98932
w 34 -33 15 0.667464
w 34 -33 -15 0.00105512
w 35 34 16 0.757944
w 35 34 -16 0.974954
w 35 -34 16 0.47259
w 35 -34 -16 0.40787
w 36 35 17 1
w 36 35 -17 1
w 36 -35 17 0
w 36 -35 -17 1
w 37 36 18 1
w 37 36 -18 0
w 37 -36 18 0
w 37 -36 -18 1
w 38 37 19 1
w 38 37 -19 1
w 38 -37 19 1
w 38 -37 -19 0
w 39 20 0.201995
w 39 -20 0.936008
w 40 39 21 0
w 40 39 -21 0
w 40 -39 21 1
w 40 -39 -21 1
w 41 40 22 0
w 41 40 -22 1
w 41 -40 22 1
w 41 -40 -22 1
w 42 41 23 0
w 42 41 -23 0
w 42 -41 23 1
w 42 -41 -23 1
w 43 42 24 1
w 43 42 -24 0
w 43 -42 24 1
w 43 -42 -24 0
w 44 43 25 0.809426
w 44 43 -25 0.667511
w 44 -43 25 0.804984
w 44 -43 -25 0.314031
w 45 44 26 0.73692
w 45 44 -26 0.866381
w 45 -44 26 0.4143
w 45 -44 -26 0.938915
w 46 45 27 0.839891
w 46 45 -27 0.738526
w 46 -45 27 0.146719
w 46 -45 -27 0.913645
w 47 46 28 1
w 47 46 -28 1
w 47 -46 28 1
w 47 -46 -28 0
w 48 47 29 0
w 48 47 -29 0
w 48 -47 29 0
w 48 -47 -29 1
w 49 48 30 1
w 49 48 -30 1
w 49 -48 30 1
w 49 -48 -30 0
w 50 49 31 0.666267
w 50 49 -31 0.0138269
w 50 -49 31 0.75541
w 50 -49 -31 0.980298
w 51 50 32 0.49233
w 51 50 -32 0.846679
w 51 -50 32 0.306557
w 51 -50 -32 0.431245
w 52 51 33 0.146448
w 52 51 -33 0.169771
w 52 -51 33 0.795787
w 52 -51 -33 0.0600924
w 53 52 34 0
w 53 52 -34 1
w 53 -52 34 0
w 53 -52 -34 0
w 54 53 35 0.71043
w 54 53 -35 0.0721605
w 54 -53 35 0.930039
w 54 -53 -35 0.166096
w 55 54 36 0
w 55 54 -36 0
w 55 -54 36 0
w 55 -54 -36 1
w 56 55 37 0.563747
w 56 55 -37 0.8771
w 56 -55 37 0.961419
w 56 -55 -37 0.319156
w 57 56 38 0.853676
w 57 56 -38 0.811486
w 57 -56 38 0.704077
w 57 -56 -38 0.160234
w 58 39 0
w 58 -39 1
w 59 58 40 1
w 59 58 -40 1
w 59 -58 40 0
w 59 -58 -40 0
w 60 59 41 1
w 60 59 -41 0
w 60 -59 41 1
w 60 -59 -41 0
w 61 60 42 1
w 61 60 -42 1
w 61 -60 42 1
w 61 -60 -42 0
w 62 61 43 1
w 62 61 -43 0
w 62 -61 43 1
w 62 -61 -43 1
w 63 62 44 1
w 63 62 -44 0
w 63 -62 44 1
w 63 -62 -44 0
w 64 63 45 0.884149
w 64 63 -45 0.934041
w 64 -63 45 0.11755
w 64 -63 -45 0.237294
w 65 64 46 0
w 65 64 -46 1
w 65 -64 46 1
w 65 -64 -46 0
w 66 65 47 0.689226
w 66 65 -47 0.775331
w 66 -65 47 0.11382
w 66 -65 -47 0.639936
w 67 66 48 0
w 67 66 -48 0
w 67 -66 48 1
w 67 -66 -48 0
w 68 67 49 0.440044
w 68 67 -49 0.236023
w 68 -67 49 0.201001
w 68 -67 -49 0.398757
w 69 68 50 0.523675
w 69 68 -50 0.318888
w 69 -68 50 0.0435309
w 69 -68 -50 0.703747
w 70 69 51 1
w 70 69 -51 1
w 70 -69 51 0
w 70 -69 -51 1
w 71 70 52 0.267458
w 71 70 -52 0.565951
w 71 -70 52 0.211415
w 71 -70 -52 0.874954
w 72 71 53 0.0227289
w 72 71 -53 0.56418
w 72 -71 53 0.583293
w 72 -71 -53 0.136549
w 73 72 54 0
w 73 72 -54 0
w 73 -72 54 0
w 73 -72 -54 1
w 74 73 55 0.480229
w 74 73 -55 0.47134
w 74 -73 55 0.916653
w 74 -73 -55 0.681229
w 75 74 56 0.896852
w 75 74 -56 0.204904
w 75 -74 56 0.188985
w 75 -74 -56 0.940383
w 76 75 57 0.28168
w 76 75 -57 0.858732
w 76 -75 57 0.496547
w 76 -75 -57 0.308415
w 77 58 0.321738
w 77 -58 0.575873
w 78 77 59 0
w 78 77 -59 1
w 78 -77 59 0
w 78 -77 -59 0
w 79 78 60 1
w 79 78 -60 0
w 79 -78 60 1
w 79 -78 -60 1
w 80 79 61 0
w 80 79 -61 1
w 80 -79 61 0
w 80 -79 -61 0
w 81 80 62 0.914748
w 81 80 -62 0.105384
w 81 -80 62 0.826943
w 81 -80 -62 0.8116
w 82 81 63 0
w 82 81 -63 0
w 82 -81 63 1
w 82 -81 -63 1
w 83 82 64 0.715486
w 83 82 -64 0.606023
w 83 -82 64 0.505345
w 83 -82 -64 0.0372238
w 84 83 65 1
w 84 83 -65 0
w 84 -83 65 1
w 84 -83 -65 1
w 85 84 66 0
w 85 84 -66 0
w 85 -84 66 1
w 85 -84 -66 0
w 86 85 67 0
w 86 85 -67 1
w 86 -85 67 1
w 86 -85 -67 0
w 87 86 68 0.0489995
w 87 86 -68 0.34032
w 87 -86 68 0.809812
w 87 -86 -68 0.860599
w 88 87 69 0.82574
w 88 87 -69 0.612582
w 88 -87 69 0.869546
w 88 -87 -69 0.123347
w 89 88 70 0
w 89 88 -70 1
w 89 -88 70 1
w 89 -88 -70 0
w 90 89 71 0.694568
w 90 89 -71 0.192633
w 90 -89 71 0.54399
w 90 -89 -71 0.929038
w 91 90 72 0
w 91 90 -72 1
w 91 -90 72 0
w 91 -90 -72 0
w 92 91 73 0.273737
w 92 91 -73 0.869359
w 92 -91 73 0.581884
w 92 -91 -73 0.407989
w 93 92 74 0
w 93 92 -74 1
w 93 -92 74 0
w 93 -92 -74 1
w 94 93 75 0
w 94 93 -75 0
w 94 -93 75 1
w 94 -93 -75 0
w 95 94 76 1
w 95 94 -76 1
w 95 -94 76 0
w 95 -94 -76 0
w 96 77 0
w 96 -77 1
w 97 96 78 0.364688
w 97 96 -78 0.508278
w 97 -96 78 0.505713
w 97 -96 -78 0.68358
w 98 97 79 0.521058
w 98 97 -79 0.821162
w 98 -97 79 0.758577
w 98 -97 -79 0.0769196
w 99 98 80 1
w 99 98 -80 1
w 99 -98 80 0
w 99 -98 -80 1
w 100 99 81 1
w 100 99 -81 0
w 100 -99 81 0
w 100 -99 -81 1
w 101 100 82 0
w 101 100 -82 0
w 101 -100 82 0
w 101 -100 -82 1
w 102 101 83 1
w 102 101 -83 1
w 102 -101 83 0
w 102 -101 -83 1
w 103 102 84 0
w 103 102 -84 1
w 103 -102 84 0
w 103 -102 -84 0
w 104 103 85 0
w 104 103 -85 1
w 104 -103 85 1
w 104 -103 -85 1
w 105 104 86 0.923018
w 105 104 -86 0.734177
w 105 -104 86 0.582376
w 105 -104 -86 0.425905
w 106 105 87 0
w 106 105 -87 1
w 106 -105 87 0
w 106 -105 -87 0
w 107 106 88 0.915318
w 107 106 -88 0.202479
w 107 -106 88 0.870879
w 107 -106 -88 0.152152
w 108 107 89 1
w 108 107 -89 0
w 108 -107 89 1
w 108 -107 -89 1
w 109 108 90 0.639039
w 109 108 -90 0.295068
w 109 -108 90 0.220851
w 109 -108 -90 0.286703
w 110 109 91 0.227808
w 110 109 -91 0.634367
w 110 -109 91 0.467315
w 110 -109 -91 0.0559264
w 111 110 92 0.390887
w 111 110 -92 0.978944
w 111 -110 92 0.474785
w 111 -110 -92 0.973263
w 112 111 93 1
w 112 111 -93 1
w 112 -111 93 1
w 112 -111 -93 0
w 113 112 94 1
w 113 112 -94 0
w 113 -112 94 0
w 113 -112 -94 1
w 114 113 95 0.710283
w 114 113 -95 0.556734
w 114 -113 95 0.590698
w 114 -113 -95 0.209936
w 115 96 1
w 115 -96 0
w 116 115 97 0.326988
w 116 115 -97 0.709024
w 116 -115 97 0.135677
w 116 -115 -97 0.947651
w 117 116 98 0.770043
w 117 116 -98 0.414966
w 117 -116 98 0.992758
w 117 -116 -98 0.510651
w 118 117 99 0.971702
w 118 117 -99 0.985436
w 118 -117 99 0.779116
w 118 -117 -99 0.376551
w 119 118 100 0.558312
w 119 118 -100 0.167182
w 119 -118 100 0.511071
w 119 -118 -100 0.741561
w 120 119 101 0.0108318
w 120 119 -101 0.127289
w 120 -119 101 0.945813
w 120 -119 -101 0.662745
w 121 120 102 0.502548
w 121 120 -102 0.253443
w 121 -120 102 0.0475069
w 121 -120 -102 0.534468
w 122 121 103 0.896481
w 122 121 -103 0.861456
w 122 -121 103 0.450639
w 122 -121 -103 0.0321578
w 123 122 104 0.387471
w 123 122 -104 0.802201
w 123 -122 104 0.224074
w 123 -122 -104 0.380229
w 124 123 105 1
w 124 123 -105 0
w 124 -123 105 1
w 124 -123 -105 1
w 125 124 106 0.224915
w 125 124 -106 0.367355
w 125 -124 106 0.895664
w 125 -124 -106 0.735986
w 126 125 107 0
w 126 125 -107 1
w 126 -125 107 1
w 126 -125 -107 0
w 127 126 108 1
w 127 126 -108 0
w 127 -126 108 1
w 127 -126 -108 1
w 128 127 109 1
w 128 127 -109 0
w 128 -127 109 1
w 128 -127 -109 0
w 129 128 110 0
w 129 128 -110 0
w 129 -128 110 0
w 129 -128 -110 1
w 130 129 111 0.164975
w 130 129 -111 0.424115
w 130 -129 111 0.974891
w 130 -129 -111 0.463263
w 131 130 112 0
w 131 130 -112 0
w 131 -130 112 1
w 131 -130 -112 1
w 132 131 113 1
w 132 131 -113 1
w 132 -131 113 1
w 132 -131 -113 0
w 133 132 114 0.580545
w 133 132 -114 0.019409
w 133 -132 114 0.543375
w 133 -132 -114 0.243551
w 134 115 1
w 134 -115 0
w 135 134 116 0.158455
w 135 134 -116 0.403933
w 135 -134 116 0.503433
w 135 -134 -116 0.208377
w 136 135 117 0.746165
w 136 135 -117 0.0604999
w 136 -135 117 0.968235
w 136 -135 -117 0.369125
w 137 136 118 0
w 137 136 -118 1
w 137 -136 118 1
w 137 -136 -118 0
w 138 137 119 1
w 138 137 -119 1
w 138 -137 119 0
w 138 -137 -119 1
w 139 138 120 0.972066
w 139 138 -120 0.881083
w 139 -138 120 0.340475
w 139 -138 -120 0.552611
w 140 139 121 0.883851
w 140 139 -121 0.796162
w 140 -139 121 0.0411842
w 140 -139 -121 0.926776
w 141 140 122 1
w 141 140 -122 0
w 141 -140 122 1
w 141 -140 -122 1
w 142 141 123 0.693933
w 142 141 -123 0.468517
w 142 -141 123 0.872991
w 142 -141 -123 0.0630584
w 143 142 124 0.265342
w 143 142 -124 0.407074
w 143 -142 124 0.382731
w 143 -142 -124 0.89085
w 144 143 125 1
w 144 143 -125 1
w 144 -143 125 0
w 144 -143 -125 0
w 145 144 126 1
w 145 144 -126 1
w 145 -144 126 0
w 145 -144 -126 0
w 146 145 127 1
w 146 145 -127 0
w 146 -145 127 0
w 146 -145 -127 1
w 147 146 128 1
w 147 146 -128 0
w 147 -146 128 0
w 147 -146 -128 0
w 148 147 129 0
w 148 147 -129 1
w 148 -147 129 1
w 148 -147 -129 1
w 149 148 130 1
w 149 148 -130 0
w 149 -148 130 0
w 149 -148 -130 1
w 150 149 131 1
w 150 149 -131 0
w 150 -149 131 0
w 150 -149 -131 1
w 151 150 132 0
w 151 150 -132 1
w 151 -150 132 1
w 151 -150 -132 0
w 152 151 133 0
w 152 151 -133 0
w 152 -151 133 1
w 152 -151 -133 0
w 153 134 1
w 153 -134 0
w 154 153 135 0
w 154 153 -135 1
w 154 -153 135 1
w 154 -153 -135 1
w 155 154 136 0.415316
w 155 154 -136 0.599116
w 155 -154 136 0.878417
w 155 -154 -136 0.44598
w 156 155 137 1
w 156 155 -137 1
w 156 -155 137 1
w 156 -155 -137 0
w 157 156 138 0.0599666
w 157 156 -138 0.9409
w 157 -156 138 0.769011
w 157 -156 -138 0.408324
w 158 157 139 1
w 158 157 -139 1
w 158 -157 139 1
w 158 -157 -139 0
w 159 158 140 1
w 159 158 -140 0
w 159 -158 140 1
w 159 -158 -140 1
w 160 159 141 1
w 160 159 -141 0
w 160 -159 141 1
w 160 -159 -141 0
w 161 160 142 1
w 161 160 -142 0
w 161 -160 142 1
w 161 -160 -142 1
w 162 161 143 0
w 162 161 -143 0
w 162 -161 143 1
w 162 -161 -143 1
w 163 162 144 0
w 163 162 -144 1
w 163 -162 144 0
w 163 -162 -144 1
w 164 163 145 0.762623
w 164 163 -145 0.0453442
w 164 -163 145 0.325906
w 164 -163 -145 0.0186618
w 165 164 146 1
w 165 164 -146 1
w 165 -164 146 1
w 165 -164 -146 0
w 166 165 147 0
w 166 165 -147 1
w 166 -165 147 0
w 166 -165 -147 0
w 167 166 148 0.268184
w 167 166 -148 0.725414
w 167 -166 148 0.039293
w 167 -166 -148 0.855395
w 168 167 149 1
w 168 167 -149 1
w 168 -167 149 0
w 168 -167 -149 0
w 169 168 150 0.527606
w 169 168 -150 0.270567
w 169 -168 150 0.589042
w 169 -168 -150 0.000751261
w 170 169 151 0.230075
w 170 169 -151 0.763374
w 170 -169 151 0.590921
w 170 -169 -151 0.555981
w 171 170 152 0.621918
w 171 170 -152 0.713859
w 171 -170 152 0.904868
w 171 -170 -152 0.728968
w 172 153 0.305906
w 172 -153 0.0771942
w 173 172 154 0.432858
w 173 172 -154 0.314456
w 173 -172 154 0.421187
w 173 -172 -154 0.701042
w 174 173 155 1
w 174 173 -155 0
w 174 -173 155 1
w 174 -173 -155 0
w 175 174 156 0.960582
w 175 174 -156 0.284232
w 175 -174 156 0.455942
w 175 -174 -156 0.488187
w 176 175 157 0.0449844
w 176 175 -157 0.488939
w 176 -175 157 0.100376
w 176 -175 -157 0.27506
w 177 176 158 1
w 177 176 -158 1
w 177 -176 158 0
w 177 -176 -158 1
w 178 177 159 0.0421827
w 178 177 -159 0.409879
w 178 -177 159 0.245122
w 178 -177 -159 0.119377
w 179 178 160 0.677981
w 179 178 -160 0.433833
w 179 -178 160 0.346557
w 179 -178 -160 0.379023
w 180 179 161 1
w 180 179 -161 0
w 180 -179 161 1
w 180 -179 -161 1
w 181 180 162 0.991027
w 181 180 -162 0.274166
w 181 -180 162 0.420269
w 181 -180 -162 0.545826
w 182 181 163 0
w 182 181 -163 1
w 182 -181 163 1
w 182 -181 -163 1
w 183 182 164 0
w 183 182 -164 0
w 183 -182 164 1
w 183 -182 -164 0
w 184 183 165 1
w 184 183 -165 1
w 184 -183 165 0
w 184 -183 -165 0
w 185 184 166 1
w 185 184 -166 0
w 185 -184 166 1
w 185 -184 -166 1
w 186 185 167 0.458995
w 186 185 -167 0.372672
w 186 -185 167 0.691307
w 186 -185 -167 0.165791
w 187 186 168 0
w 187 186 -168 0
w 187 -186 168 1
w 187 -186 -168 0
w 188 187 169 0.784212
w 188 187 -169 0.952866
w 188 -187 169 0.348845
w 188 -187 -169 0.378421
w 189 188 170 1
w 189 188 -170 1
w 189 -188 170 1
w 189 -188 -170 0
w 190 189 171 0.445343
w 190 189 -171 0.0299497
w 190 -189 171 0.153852
w 190 -189 -171 0.825551
w 191 172 0.459253
w 191 -172 0.88374
w 192 191 173 0
w 192 191 -173 0
w 192 -191 173 0
w 192 -191 -173 1
w 193 192 174 0
w 193 192 -174 0
w 193 -192 174 1
w 193 -192 -174 1
w 194 193 175 1
w 194 193 -175 1
w 194 -193 175 0
w 194 -193 -175 0
w 195 194 176 0.512215
w 195 194 -176 0.23374
w 195 -194 176 0.630646
w 195 -194 -176 0.315887
w 196 195 177 0.967701
w 196 195 -177 0.0897093
w 196 -195 177 0.989339
w 196 -195 -177 0.99765
w 197 196 178 1
w 197 196 -178 0
w 197 -196 178 0
w 197 -196 -178 0
w 198 197 179 0.814025
w 198 197 -179 0.0195832
w 198 -197 179 0.736329
w 198 -197 -179 0.38423
w 199 198 180 0.235769
w 199 198 -180 0.120226
w 199 -198 180 0.597728
w 199 -198 -180 0.358597
w 200 199 181 1
w 200 199 -181 1
w 200 -199 181 1
w 200 -199 -181 0
w 201 200 182 0.593317
w 201 200 -182 0.878177
w 201 -200 182 0.183446
w 201 -200 -182 0.909204
w 202 201 183 0
w 202 201 -183 0
w 202 -201 183 1
w 202 -201 -183 0
w 203 202 184 1
w 203 202 -184 0
w 203 -202 184 0
w 203 -202 -184 0
w 204 203 185 0.944618
w 204 203 -185 0.653195
w 204 -203 185 0.143543
w 204 -203 -185 0.657825
w 205 204 186 0.263769
w 205 204 -186 0.255553
w 205 -204 186 0.247561
w 205 -204 -186 0.27681
w 206 205 187 1
w 206 205 -187 1
w 206 -205 187 1
w 206 -205 -187 0
w 207 206 188 0
w 207 206 -188 1
w 207 -206 188 0
w 207 -206 -188 0
w 208 207 189 0.7727
w 208 207 -189 0.785399
w 208 -207 189 0.128946
w 208 -207 -189 0.921497
w 209 208 190 0
w 209 208 -190 1
w 209 -208 190 0
w 209 -208 -190 0
w 210 191 0.732474
w 210 -191 0.225001
w 211 210 192 1
w 211 210 -192 1
w 211 -210 192 0
w 211 -210 -192 0
w 212 211 193 1
w 212 211 -193 0
w 212 -211 193 0
w 212 -211 -193 0
w 213 212 194 1
w 213 212 -194 1
w 213 -212 194 0
w 213 -212 -194 1
w 214 213 195 1
w 214 213 -195 1
w 214 -213 195 0
w 214 -213 -195 1
w 215 214 196 0
w 215 214 -196 0
w 215 -214 196 0
w 215 -214 -196 1
w 216 215 197 0.0754054
w 216 215 -197 0.583847
w 216 -215 197 0.792957
w 216 -215 -197 0.80788
w 217 216 198 0.273182
w 217 216 -198 0.683898
w 217 -216 198 0.691675
w 217 -216 -198 0.64237
w 218 217 199 0.830054
w 218 217 -199 0.259119
w 218 -217 199 0.240281
w 218 -217 -199 0.171295
w 219 218 200 0.542186
w 219 218 -200 0.7965
w 219 -218 200 0.454989
w 219 -218 -200 0.282197
w 220 219 201 0
w 220 219 -201 1
w 220 -219 201 1
w 220 -219 -201 0
w 221 220 202 0.66233
w 221 220 -202 0.324007
w 221 -220 202 0.83379
w 221 -220 -202 0.764574
w 222 221 203 0.799717
w 222 221 -203 0.83998
w 222 -221 203 0.211318
w 222 -221 -203 0.592674
w 223 222 204 0.0201664
w 223 222 -204 0.865856
w 223 -222 204 0.331757
w 223 -222 -204 0.711841
w 224 223 205 0.155442
w 224 223 -205 0.541895
w 224 -223 205 0.767345
w 224 -223 -205 0.395723
w 225 224 206 0.415858
w 225 224 -206 0.937909
w 225 -224 206 0.509691
w 225 -224 -206 0.870847
w 226 225 207 1
w 226 225 -207 0
w 226 -225 207 1
w 226 -225 -207 0
w 227 226 208 0.641897
w 227 226 -208 0.0589675
w 227 -226 208 0.127471
w 227 -226 -208 0.475688
w 228 227 209 0.754941
w 228 227 -209 0.275405
w 228 -227 209 0.663521
w 228 -227 -209 0.966259
w 229 210 0.311381
w 229 -210 0.986425
w 230 229 211 0.643138
w 230 229 -211 0.698267
w 230 -229 211 0.242161
w 230 -229 -211 0.79858
w 231 230 212 1
w 231 230 -212 1
w 231 -230 212 0
w 231 -230 -212 0
w 232 231 213 1
w 232 231 -213 1
w 232 -231 213 0
w 232 -231 -213 0
w 233 232 214 0.216188
w 233 232 -214 0.668358
w 233 -232 214 0.527246
w 233 -232 -214 0.858085
w 234 233 215 0.654716
w 234 233 -215 0.333773
w 234 -233 215 0.550868
w 234 -233 -215 0.409658
w 235 234 216 0.214389
w 235 234 -216 0.375916
w 235 -234 216 0.477257
w 235 -234 -216 0.52577
w 236 235 217 0
w 236 235 -217 1
w 236 -235 217 0
w 236 -235 -217 1
w 237 236 218 0.300771
w 237 236 -218 0.462858
w 237 -236 218 0.161792
w 237 -236 -218 0.254123
w 238 237 219 0.294004
w 238 237 -219 0.717166
w 238 -237 219 0.184432
w 238 -237 -219 0.646323
w 239 238 220 0.908213
w 239 238 -220 0.862511
w 239 -238 220 0.657246
w 239 -238 -220 0.435459
w 240 239 221 0.384572
w 240 239 -221 0.0901751
w 240 -239 221 0.054369
w 240 -239 -221 0.935439
w 241 240 222 0
w 241 240 -222 1
w 241 -240 222 1
w 241 -240 -222 0
w 242 241 223 0.238091
w 242 241 -223 0.351995
w 242 -241 223 0.844507
w 242 -241 -223 0.298699
w 243 242 224 0.811996
w 243 242 -224 0.59947
w 243 -242 224 0.268205
w 243 -242 -224 0.973788
w 244 243 225 0.156427
w 244 243 -225 0.267792
w 244 -243 225 0.57076
w 244 -243 -225 0.340858
w 245 244 226 0.559647
w 245 244 -226 0.249071
w 245 -244 226 0.776626
w 245 -244 -226 0.216893
w 246 245 227 0.497222
w 246 245 -227 0.601465
w 246 -245 227 0.774705
w 246 -245 -227 0.551591
w 247 246 228 0.274538
w 247 246 -228 0.215138
w 247 -246 228 0.686733
w 247 -246 -228 0.150287
w 248 229 0
w 248 -229 1
w 249 248 230 1
w 249 248 -230 0
w 249 -248 230 1
w 249 -248 -230 1
w 250 249 231 0
w 250 249 -231 0
w 250 -249 231 1
w 250 -249 -231 0
w 251 250 232 0.260415
w 251 250 -232 0.7109
w 251 -250 232 0.278774
w 251 -250 -232 0.17453
w 252 251 233 1
w 252 251 -233 1
w 252 -251 233 1
w 252 -251 -233 0
w 253 252 234 1
w 253 252 -234 0
w 253 -252 234 0
w 253 -252 -234 1
w 254 253 235 1
w 254 253 -235 1
w 254 -253 235 0
w 254 -253 -235 0
w 255 254 236 0.800283
w 255 254 -236 0.278987
w 255 -254 236 0.881712
w 255 -254 -236 0.48736
w 256 255 237 0.900547
w 256 255 -237 0.773907
w 256 -255 237 0.573761
w 256 -255 -237 0.89317
w 257 256 238 0.511678
w 257 256 -238 0.153584
w 257 -256 238 0.624946
w 257 -256 -238 0.790452
w 258 257 239 0
w 258 257 -239 0
w 258 -257 239 1
w 258 -257 -239 1
w 259 258 240 0.727651
w 259 258 -240 0.471837
w 259 -258 240 0.517754
w 259 -258 -240 0.727621
w 260 259 241 0
w 260 259 -241 0
w 260 -259 241 1
w 260 -259 -241 1
w 261 260 242 0.085061
w 261 260 -242 0.991561
w 261 -260 242 0.792768
w 261 -260 -242 0.966773
w 262 261 243 0
w 262 261 -243 0
w 262 -261 243 1
w 262 -261 -243 0
w 263 262 244 0.166874
w 263 262 -244 0.670479
w 263 -262 244 0.914074
w 263 -262 -244 0.791821
w 264 263 245 0
w 264 263 -245 1
w 264 -263 245 0
w 264 -263 -245 1
w 265 264 246 0
w 265 264 -246 0
w 265 -264 246 0
w 265 -264 -246 1
w 266 265 247 0.607029
w 266 265 -247 0.919463
w 266 -265 247 0.0499179
w 266 -265 -247 0.798307
w 267 248 0
w 267 -248 1
w 268 267 249 0.226011
w 268 267 -249 0.101752
w 268 -267 249 0.268788
w 268 -267 -249 0.811051
w 269 268 250 0.521615
w 269 268 -250 0.969852
w 269 -268 250 0.729561
w 269 -268 -250 0.688489
w 270 269 251 0.643635
w 270 269 -251 0.48031
w 270 -269 251 0.101261
w 270 -269 -251 0.885824
w 271 270 252 1
w 271 270 -252 0
w 271 -270 252 0
w 271 -270 -252 1
w 272 271 253 0.779954
w 272 271 -253 0.0180484
w 272 -271 253 0.633128
w 272 -271 -253 0.419684
w 273 272 254 0.552591
w 273 272 -254 0.469602
w 273 -272 254 0.423384
w 273 -272 -254 0.985834
w 274 273 255 0.213251
w 274 273 -255 0.211845
w 274 -273 255 0.706333
w 274 -273 -255 0.482039
w 275 274 256 0
w 275 274 -256 1
w 275 -274 256 1
w 275 -274 -256 1
w 276 275 257 0.633079
w 276 275 -257 0.0486014
w 276 -275 257 0.172453
w 276 -275 -257 0.73434
w 277 276 258 0.340076
w 277 276 -258 0.61483
w 277 -276 258 0.34171
w 277 -276 -258 0.577947
w 278 277 259 0.998106
w 278 277 -259 0.357901
w 278 -277 259 0.82327
w 278 -277 -259 0.631234
w 279 278 260 0.448348
w 279 278 -260 0.183825
w 279 -278 260 0.247187
w 279 -278 -260 0.871732
w 280 279 261 1
w 280 279 -261 0
w 280 -279 261 1
w 280 -279 -261 1
w 281 280 262 0.404401
w 281 280 -262 0.233506
w 281 -280 262 0.570676
w 281 -280 -262 0.397149
w 282 281 263 0.262819
w 282 281 -263 0.0302279
w 282 -281 263 0.687074
w 282 -281 -263 0.435272
w 283 282 264 0.621499
w 283 282 -264 0.775348
w 283 -282 264 0.379398
w 283 -282 -264 0.963209
w 284 283 265 1
w 284 283 -265 0
w 284 -283 265 1
w 284 -283 -265 1
w 285 284 266 0.488781
w 285 284 -266 0.456238
w 285 -284 266 0.776374
w 285 -284 -266 0.735968
w 286 267 1
w 286 -267 0
w 287 286 268 0.412953
w 287 286 -268 0.327538
w 287 -286 268 0.145838
w 287 -286 -268 0.979975
w 288 287 269 0.379344
w 288 287 -269 0.55065
w 288 -287 269 0.129089
w 288 -287 -269 0.0178164
w 289 288 270 0.159317
w 289 288 -270 0.70489
w 289 -288 270 0.248741
w 289 -288 -270 0.923885
w 290 289 271 0
w 290 289 -271 0
w 290 -289 271 0
w 290 -289 -271 1
w 291 290 272 0
w 291 290 -272 1
w 291 -290 272 1
w 291 -290 -272 1
w 292 291 273 0.952031
w 292 291 -273 0.619837
w 292 -291 273 0.313329
w 292 -291 -273 0.28
w 293 292 274 0.901066
w 293 292 -274 0.692953
w 293 -292 274 0.893409
w 293 -292 -274 0.0469042
w 294 293 275 0.625348
w 294 293 -275 0.426248
w 294 -293 275 0.223578
w 294 -293 -275 0.754437
w 295 294 276 1
w 295 294 -276 0
w 295 -294 276 0
w 295 -294 -276 0
w 296 295 277 0
w 296 295 -277 0
w 296 -295 277 1
w 296 -295 -277 0
w 297 296 278 0.0158559
w 297 296 -278 0.775843
w 297 -296 278 0.124615
w 297 -296 -278 0.859318
w 298 297 279 0
w 298 297 -279 1
w 298 -297 279 0
w 298 -297 -279 0
w 299 298 280 0
w 299 298 -280 1
w 299 -298 280 1
w 299 -298 -280 1
w 300 299 281 0.563782
w 300 299 -281 0.0407523
w 300 -299 281 0.946106
w 300 -299 -281 0.318219
w 301 300 282 1
w 301 300 -282 0
w 301 -300 282 0
w 301 -300 -282 1
w 302 301 283 0
w 302 301 -283 0
w 302 -301 283 1
w 302 -301 -283 1
w 303 302 284 1
w 303 302 -284 1
w 303 -302 284 1
w 303 -302 -284 0
w 304 303 285 0.395131
w 304 303 -285 0.0406137
w 304 -303 285 0.228388
w 304 -303 -285 0.0616645
w 305 286 1
w 305 -286 0
w 306 305 287 0.446859
w 306 305 -287 0.211847
w 306 -305 287 0.243768
w 306 -305 -287 0.169386
w 307 306 288 0.28452
w 307 306 -288 0.115491
w 307 -306 288 0.0938477
w 307 -306 -288 0.769337
w 308 307 289 1
w 308 307 -289 0
w 308 -307 289 0
w 308 -307 -289 0
w 309 308 290 0.946409
w 309 308 -290 0.605961
w 309 -308 290 0.386284
w 309 -308 -290 0.212492
w 310 309 291 1
w 310 309 -291 1
w 310 -309 291 0
w 310 -309 -291 1
w 311 310 292 0.449897
w 311 310 -292 0.25382
w 311 -310 292 0.711215
w 311 -310 -292 0.847156
w 312 311 293 0.340479
w 312 311 -293 0.294015
w 312 -311 293 0.73908
w 312 -311 -293 0.584247
w 313 312 294 1
w 313 312 -294 1
w 313 -312 294 0
w 313 -312 -294 0
w 314 313 295 0.677537
w 314 313 -295 0.934377
w 314 -313 295 0.0412139
w 314 -313 -295 0.0451246
w 315 314 296 1
w 315 314 -296 0
w 315 -314 296 1
w 315 -314 -296 0
w 316 315 297 1
w 316 315 -297 0
w 316 -315 297 1
w 316 -315 -297 1
w 317 316 298 1
w 317 316 -298 1
w 317 -316 298 0
w 317 -316 -298 1
w 318 317 299 1
w 318 317 -299 0
w 318 -317 299 0
w 318 -317 -299 0
w 319 318 300 0.276196
w 319 318 -300 0.612703
w 319 -318 300 0.423726
w 319 -318 -300 0.884753
w 320 319 301 1
w 320 319 -301 0
w 320 -319 301 0
w 320 -319 -301 0
w 321 320 302 0
w 321 320 -302 0
w 321 -320 302 1
w 321 -320 -302 0
w 322 321 303 0
w 322 321 -303 1
w 322 -321 303 0
w 322 -321 -303 1
w 323 322 304 0
w 323 322 -304 0
w 323 -322 304 0
w 323 -322 -304 1
w 324 305 0.760041
w 324 -305 0.887285
w 325 324 306 0.521528
w 325 324 -306 0.63122
w 325 -324 306 0.810103
w 325 -324 -306 0.797724
w 326 325 307 0
w 326 325 -307 1
w 326 -325 307 1
w 326 -325 -307 1
w 327 326 308 0.786751
w 327 326 -308 0.481479
w 327 -326 308 0.650544
w 327 -326 -308 0.632212
w 328 327 309 0.735249
w 328 327 -309 0.417396
w 328 -327 309 0.961346
w 328 -327 -309 0.201038
w 329 328 310 1
w 329 328 -310 1
w 329 -328 310 1
w 329 -328 -310 0
w 330 329 311 0.398597
w 330 329 -311 0.397719
w 330 -329 311 0.537445
w 330 -329 -311 0.158637
w 331 330 312 1
w 331 330 -312 0
w 331 -330 312 0
w 331 -330 -312 0
w 332 331 313 1
w 332 331 -313 0
w 332 -331 313 0
w 332 -331 -313 0
w 333 332 314 0.661973
w 333 332 -314 0.441628
w 333 -332 314 0.363216
w 333 -332 -314 0.312517
w 334 333 315 1
w 334 333 -315 0
w 334 -333 315 1
w 334 -333 -315 0
w 335 334 316 0
w 335 334 -316 1
w 335 -334 316 1
w 335 -334 -316 1
w 336 335 317 0
w 336 335 -317 1
w 336 -335 317 0
w 336 -335 -317 1
w 337 336 318 0
w 337 336 -318 0
w 337 -336 318 1
w 337 -336 -318 0
w 338 337 319 0
w 338 337 -319 0
w 338 -337 319 1
w 338 -337 -319 0
w 339 338 320 1
w 339 338 -320 0
w 339 -338 320 1
w 339 -338 -320 1
w 340 339 321 0
w 340 339 -321 1
w 340 -339 321 1
w 340 -339 -321 0
w 341 340 322 0.706236
w 341 340 -322 0.436458
w 341 -340 322 0.423412
w 341 -340 -322 0.276937
w 342 341 323 0.0830191
w 342 341 -323 0.246234
w 342 -341 323 0.585824
w 342 -341 -323 0.280071
w 343 324 1
w 343 -324 0
w 344 343 325 0.18227
w 344 343 -325 0.619141
w 344 -343 325 0.992418
w 344 -343 -325 0.468259
w 345 344 326 0.551645
w 345 344 -326 0.914614
w 345 -344 326 0.543852
w 345 -344 -326 0.992609
w 346 345 327 1
w 346 345 -327 1
w 346 -345 327 0
w 346 -345 -327 1
w 347 346 328 0.912399
w 347 346 -328 0.877033
w 347 -346 328 0.314343
w 347 -346 -328 0.629814
w 348 347 329 0.750802
w 348 347 -329 0.053227
w 348 -347 329 0.860205
w 348 -347 -329 0.563084
w 349 348 330 1
w 349 348 -330 1
w 349 -348 330 1
w 349 -348 -330 0
w 350 349 331 0.396153
w 350 349 -331 0.662879
w 350 -349 331 0.412421
w 350 -349 -331 0.388571
w 351 350 332 0
w 351 350 -332 0
w 351 -350 332 1
w 351 -350 -332 1
w 352 351 333 0.0686945
w 352 351 -333 0.485605
w 352 -351 333 0.729614
w 352 -351 -333 0.512482
w 353 352 334 0.313199
w 353 352 -334 0.424881
w 353 -352 334 0.443173
w 353 -352 -334 0.627542
w 354 353 335 0
w 354 353 -335 1
w 354 -353 335 0
w 354 -353 -335 1
w 355 354 336 0.244169
w 355 354 -336 0.993086
w 355 -354 336 0.090336
w 355 -354 -336 0.660485
w 356 355 337 0
w 356 355 -337 1
w 356 -355 337 1
w 356 -355 -337 1
w 357 356 338 0
w 357 356 -338 1
w 357 -356 338 1
w 357 -356 -338 1
w 358 357 339 1
w 358 357 -339 1
w 358 -357 339 0
w 358 -357 -339 0
w 359 358 340 0.224591
w 359 358 -340 0.361063
w 359 -358 340 0.31952
w 359 -358 -340 0.667763
w 360 359 341 0.374216
w 360 359 -341 0.694205
w 360 -359 341 0.366949
w 360 -359 -341 0.482139
w 361 360 342 0.308377
w 361 360 -342 0.726307
w 361 -360 342 0.573937
w 361 -360 -342 0.398713